peakDumbCharging = 22200; 
Machine = anon_enum(16); 
machineSpeed = [3700,3700,3700,3700,3700,3700,3700,3700,3700,3700,3700,3700,3700,3700,3700,3700]; 
machineLoad = [3700,3700,3700,3700,3700,3700,3700,3700,3700,3700,3700,3700,3700,3700,3700,3700]; 
Car = anon_enum(26); 
demandCar = [21440,4640,18560,7840,1560,3880,1200,3720,29080,16680,12520,15360,1720,25840,3040,5320,760,11480,2280,12560,7200,6240,11880,31080,10600,20640]; 
arrivalCar = [73,71,70,68,67,67,67,65,64,63,61,61,58,57,56,54,50,49,49,48,47,40,38,34,33,33]; 
departureCar = [80,73,80,72,69,70,68,67,75,72,66,67,60,71,57,59,52,57,51,59,52,44,47,60,37,64]; 
